data/lp_files/q3/72_5.lp
\ Model foo
\ LP format - for model browsing. Use MPS format to capture full model detail.
Minimize
  z
Subject To
 allocateEach[1]: x[1,1] + x[2,1] + x[3,1] + x[4,1] = 1
 allocateEach[2]: x[1,2] + x[2,2] + x[3,2] + x[4,2] = 1
 allocateEach[3]: x[1,3] + x[2,3] + x[3,3] + x[4,3] = 1
 allocateEach[4]: x[1,4] + x[2,4] + x[3,4] + x[4,4] = 1
 allocateEach[5]: x[1,5] + x[2,5] + x[3,5] + x[4,5] = 1
 allocateEach[6]: x[1,6] + x[2,6] + x[3,6] + x[4,6] = 1
 allocateEach[7]: x[1,7] + x[2,7] + x[3,7] + x[4,7] = 1
 allocateEach[8]: x[1,8] + x[2,8] + x[3,8] + x[4,8] = 1
 allocateEach[9]: x[1,9] + x[2,9] + x[3,9] + x[4,9] = 1
 allocateEach[10]: x[1,10] + x[2,10] + x[3,10] + x[4,10] = 1
 allocateEach[11]: x[1,11] + x[2,11] + x[3,11] + x[4,11] = 1
 allocateEach[12]: x[1,12] + x[2,12] + x[3,12] + x[4,12] = 1
 allocateAllCash: cashProportion[1] + cashProportion[2] + cashProportion[3]
   + cashProportion[4] = 1
 findWorstP[1,2]: z + 0.0393195103410312 cashProportion[1]
   - 0.0393195103410312 cashProportion[2] + 0.1092164932239377 x[1,1]
   + 0.057943851739233 x[1,2] + 0.1116543028650817 x[1,3]
   + 0.0519803926708433 x[1,4] + 0.1017719992660358 x[1,5]
   + 0.0312327977142258 x[1,6] + 0.1040656373692626 x[1,7]
   + 0.0532255104983093 x[1,8] + 0.1163333245956644 x[1,9]
   + 0.0332118797347244 x[1,10] + 0.0817976880127919 x[1,11]
   + 0.1082466119688589 x[1,12] - 0.1092164932239377 x[2,1]
   - 0.057943851739233 x[2,2] - 0.1116543028650817 x[2,3]
   - 0.0519803926708433 x[2,4] - 0.1017719992660358 x[2,5]
   - 0.0312327977142258 x[2,6] - 0.1040656373692626 x[2,7]
   - 0.0532255104983093 x[2,8] - 0.1163333245956644 x[2,9]
   - 0.0332118797347244 x[2,10] - 0.0817976880127919 x[2,11]
   - 0.1082466119688589 x[2,12] >= 0
 findWorstP[1,3]: z + 0.0393195103410312 cashProportion[1]
   - 0.0393195103410312 cashProportion[3] + 0.1092164932239377 x[1,1]
   + 0.057943851739233 x[1,2] + 0.1116543028650817 x[1,3]
   + 0.0519803926708433 x[1,4] + 0.1017719992660358 x[1,5]
   + 0.0312327977142258 x[1,6] + 0.1040656373692626 x[1,7]
   + 0.0532255104983093 x[1,8] + 0.1163333245956644 x[1,9]
   + 0.0332118797347244 x[1,10] + 0.0817976880127919 x[1,11]
   + 0.1082466119688589 x[1,12] - 0.1092164932239377 x[3,1]
   - 0.057943851739233 x[3,2] - 0.1116543028650817 x[3,3]
   - 0.0519803926708433 x[3,4] - 0.1017719992660358 x[3,5]
   - 0.0312327977142258 x[3,6] - 0.1040656373692626 x[3,7]
   - 0.0532255104983093 x[3,8] - 0.1163333245956644 x[3,9]
   - 0.0332118797347244 x[3,10] - 0.0817976880127919 x[3,11]
   - 0.1082466119688589 x[3,12] >= 0
 findWorstP[1,4]: z + 0.0393195103410312 cashProportion[1]
   - 0.0393195103410312 cashProportion[4] + 0.1092164932239377 x[1,1]
   + 0.057943851739233 x[1,2] + 0.1116543028650817 x[1,3]
   + 0.0519803926708433 x[1,4] + 0.1017719992660358 x[1,5]
   + 0.0312327977142258 x[1,6] + 0.1040656373692626 x[1,7]
   + 0.0532255104983093 x[1,8] + 0.1163333245956644 x[1,9]
   + 0.0332118797347244 x[1,10] + 0.0817976880127919 x[1,11]
   + 0.1082466119688589 x[1,12] - 0.1092164932239377 x[4,1]
   - 0.057943851739233 x[4,2] - 0.1116543028650817 x[4,3]
   - 0.0519803926708433 x[4,4] - 0.1017719992660358 x[4,5]
   - 0.0312327977142258 x[4,6] - 0.1040656373692626 x[4,7]
   - 0.0532255104983093 x[4,8] - 0.1163333245956644 x[4,9]
   - 0.0332118797347244 x[4,10] - 0.0817976880127919 x[4,11]
   - 0.1082466119688589 x[4,12] >= 0
 findWorstP[2,1]: z - 0.0518501875248449 cashProportion[1]
   + 0.0518501875248449 cashProportion[2] - 0.0348951762042206 x[1,1]
   - 0.1309044401043917 x[1,2] - 0.0900292089389723 x[1,3]
   - 0.1650564302874229 x[1,4] - 0.1176653588897147 x[1,5]
   - 0.0928464024611556 x[1,6] - 0.0502082649198915 x[1,7]
   - 0.0145699026944814 x[1,8] - 0.0208437753849876 x[1,9]
   - 0.0941426571492767 x[1,10] - 0.1180283102023886 x[1,11]
   - 0.0189598852382516 x[1,12] + 0.0348951762042206 x[2,1]
   + 0.1309044401043917 x[2,2] + 0.0900292089389723 x[2,3]
   + 0.1650564302874229 x[2,4] + 0.1176653588897147 x[2,5]
   + 0.0928464024611556 x[2,6] + 0.0502082649198915 x[2,7]
   + 0.0145699026944814 x[2,8] + 0.0208437753849876 x[2,9]
   + 0.0941426571492767 x[2,10] + 0.1180283102023886 x[2,11]
   + 0.0189598852382516 x[2,12] >= 0
 findWorstP[2,3]: z + 0.0518501875248449 cashProportion[2]
   - 0.0518501875248449 cashProportion[3] + 0.0348951762042206 x[2,1]
   + 0.1309044401043917 x[2,2] + 0.0900292089389723 x[2,3]
   + 0.1650564302874229 x[2,4] + 0.1176653588897147 x[2,5]
   + 0.0928464024611556 x[2,6] + 0.0502082649198915 x[2,7]
   + 0.0145699026944814 x[2,8] + 0.0208437753849876 x[2,9]
   + 0.0941426571492767 x[2,10] + 0.1180283102023886 x[2,11]
   + 0.0189598852382516 x[2,12] - 0.0348951762042206 x[3,1]
   - 0.1309044401043917 x[3,2] - 0.0900292089389723 x[3,3]
   - 0.1650564302874229 x[3,4] - 0.1176653588897147 x[3,5]
   - 0.0928464024611556 x[3,6] - 0.0502082649198915 x[3,7]
   - 0.0145699026944814 x[3,8] - 0.0208437753849876 x[3,9]
   - 0.0941426571492767 x[3,10] - 0.1180283102023886 x[3,11]
   - 0.0189598852382516 x[3,12] >= 0
 findWorstP[2,4]: z + 0.0518501875248449 cashProportion[2]
   - 0.0518501875248449 cashProportion[4] + 0.0348951762042206 x[2,1]
   + 0.1309044401043917 x[2,2] + 0.0900292089389723 x[2,3]
   + 0.1650564302874229 x[2,4] + 0.1176653588897147 x[2,5]
   + 0.0928464024611556 x[2,6] + 0.0502082649198915 x[2,7]
   + 0.0145699026944814 x[2,8] + 0.0208437753849876 x[2,9]
   + 0.0941426571492767 x[2,10] + 0.1180283102023886 x[2,11]
   + 0.0189598852382516 x[2,12] - 0.0348951762042206 x[4,1]
   - 0.1309044401043917 x[4,2] - 0.0900292089389723 x[4,3]
   - 0.1650564302874229 x[4,4] - 0.1176653588897147 x[4,5]
   - 0.0928464024611556 x[4,6] - 0.0502082649198915 x[4,7]
   - 0.0145699026944814 x[4,8] - 0.0208437753849876 x[4,9]
   - 0.0941426571492767 x[4,10] - 0.1180283102023886 x[4,11]
   - 0.0189598852382516 x[4,12] >= 0
 findWorstP[3,1]: z - 0.0591926127619273 cashProportion[1]
   + 0.0591926127619273 cashProportion[3] - 0.0307801586362022 x[1,1]
   - 0.0650329505544375 x[1,2] - 0.0408626336766505 x[1,3]
   - 0.0964642279310209 x[1,4] - 0.08906515133578 x[1,5]
   - 0.1207331991634111 x[1,6] - 0.0516948818120832 x[1,7]
   - 0.0585809557633874 x[1,8] - 0.0391855096483959 x[1,9]
   - 0.1935006511187404 x[1,10] - 0.049662602107257 x[1,11]
   - 0.1052444654907068 x[1,12] + 0.0307801586362022 x[3,1]
   + 0.0650329505544375 x[3,2] + 0.0408626336766505 x[3,3]
   + 0.0964642279310209 x[3,4] + 0.08906515133578 x[3,5]
   + 0.1207331991634111 x[3,6] + 0.0516948818120832 x[3,7]
   + 0.0585809557633874 x[3,8] + 0.0391855096483959 x[3,9]
   + 0.1935006511187404 x[3,10] + 0.049662602107257 x[3,11]
   + 0.1052444654907068 x[3,12] >= 0
 findWorstP[3,2]: z - 0.0591926127619273 cashProportion[2]
   + 0.0591926127619273 cashProportion[3] - 0.0307801586362022 x[2,1]
   - 0.0650329505544375 x[2,2] - 0.0408626336766505 x[2,3]
   - 0.0964642279310209 x[2,4] - 0.08906515133578 x[2,5]
   - 0.1207331991634111 x[2,6] - 0.0516948818120832 x[2,7]
   - 0.0585809557633874 x[2,8] - 0.0391855096483959 x[2,9]
   - 0.1935006511187404 x[2,10] - 0.049662602107257 x[2,11]
   - 0.1052444654907068 x[2,12] + 0.0307801586362022 x[3,1]
   + 0.0650329505544375 x[3,2] + 0.0408626336766505 x[3,3]
   + 0.0964642279310209 x[3,4] + 0.08906515133578 x[3,5]
   + 0.1207331991634111 x[3,6] + 0.0516948818120832 x[3,7]
   + 0.0585809557633874 x[3,8] + 0.0391855096483959 x[3,9]
   + 0.1935006511187404 x[3,10] + 0.049662602107257 x[3,11]
   + 0.1052444654907068 x[3,12] >= 0
 findWorstP[3,4]: z + 0.0591926127619273 cashProportion[3]
   - 0.0591926127619273 cashProportion[4] + 0.0307801586362022 x[3,1]
   + 0.0650329505544375 x[3,2] + 0.0408626336766505 x[3,3]
   + 0.0964642279310209 x[3,4] + 0.08906515133578 x[3,5]
   + 0.1207331991634111 x[3,6] + 0.0516948818120832 x[3,7]
   + 0.0585809557633874 x[3,8] + 0.0391855096483959 x[3,9]
   + 0.1935006511187404 x[3,10] + 0.049662602107257 x[3,11]
   + 0.1052444654907068 x[3,12] - 0.0307801586362022 x[4,1]
   - 0.0650329505544375 x[4,2] - 0.0408626336766505 x[4,3]
   - 0.0964642279310209 x[4,4] - 0.08906515133578 x[4,5]
   - 0.1207331991634111 x[4,6] - 0.0516948818120832 x[4,7]
   - 0.0585809557633874 x[4,8] - 0.0391855096483959 x[4,9]
   - 0.1935006511187404 x[4,10] - 0.049662602107257 x[4,11]
   - 0.1052444654907068 x[4,12] >= 0
 findWorstP[4,1]: z - 0.0445288844030161 cashProportion[1]
   + 0.0445288844030161 cashProportion[4] - 0.1367036751172594 x[1,1]
   - 0.1382176571869619 x[1,2] - 0.0729828415365434 x[1,3]
   - 0.1464555008015199 x[1,4] - 0.0160897702309565 x[1,5]
   - 0.0147390607373983 x[1,6] - 0.0501098379148608 x[1,7]
   - 0.082230006530903 x[1,8] - 0.1053404975360684 x[1,9]
   - 0.0604999109422312 x[1,10] - 0.00479427655405807 x[1,11]
   - 0.127308080508223 x[1,12] + 0.1367036751172594 x[4,1]
   + 0.1382176571869619 x[4,2] + 0.0729828415365434 x[4,3]
   + 0.1464555008015199 x[4,4] + 0.0160897702309565 x[4,5]
   + 0.0147390607373983 x[4,6] + 0.0501098379148608 x[4,7]
   + 0.082230006530903 x[4,8] + 0.1053404975360684 x[4,9]
   + 0.0604999109422312 x[4,10] + 0.00479427655405807 x[4,11]
   + 0.127308080508223 x[4,12] >= 0
 findWorstP[4,2]: z - 0.0445288844030161 cashProportion[2]
   + 0.0445288844030161 cashProportion[4] - 0.1367036751172594 x[2,1]
   - 0.1382176571869619 x[2,2] - 0.0729828415365434 x[2,3]
   - 0.1464555008015199 x[2,4] - 0.0160897702309565 x[2,5]
   - 0.0147390607373983 x[2,6] - 0.0501098379148608 x[2,7]
   - 0.082230006530903 x[2,8] - 0.1053404975360684 x[2,9]
   - 0.0604999109422312 x[2,10] - 0.00479427655405807 x[2,11]
   - 0.127308080508223 x[2,12] + 0.1367036751172594 x[4,1]
   + 0.1382176571869619 x[4,2] + 0.0729828415365434 x[4,3]
   + 0.1464555008015199 x[4,4] + 0.0160897702309565 x[4,5]
   + 0.0147390607373983 x[4,6] + 0.0501098379148608 x[4,7]
   + 0.082230006530903 x[4,8] + 0.1053404975360684 x[4,9]
   + 0.0604999109422312 x[4,10] + 0.00479427655405807 x[4,11]
   + 0.127308080508223 x[4,12] >= 0
 findWorstP[4,3]: z - 0.0445288844030161 cashProportion[3]
   + 0.0445288844030161 cashProportion[4] - 0.1367036751172594 x[3,1]
   - 0.1382176571869619 x[3,2] - 0.0729828415365434 x[3,3]
   - 0.1464555008015199 x[3,4] - 0.0160897702309565 x[3,5]
   - 0.0147390607373983 x[3,6] - 0.0501098379148608 x[3,7]
   - 0.082230006530903 x[3,8] - 0.1053404975360684 x[3,9]
   - 0.0604999109422312 x[3,10] - 0.00479427655405807 x[3,11]
   - 0.127308080508223 x[3,12] + 0.1367036751172594 x[4,1]
   + 0.1382176571869619 x[4,2] + 0.0729828415365434 x[4,3]
   + 0.1464555008015199 x[4,4] + 0.0160897702309565 x[4,5]
   + 0.0147390607373983 x[4,6] + 0.0501098379148608 x[4,7]
   + 0.082230006530903 x[4,8] + 0.1053404975360684 x[4,9]
   + 0.0604999109422312 x[4,10] + 0.00479427655405807 x[4,11]
   + 0.127308080508223 x[4,12] >= 0
Bounds
 z <= 1
 -infinity <= cashProportion[1] <= 1
 -infinity <= cashProportion[2] <= 1
 -infinity <= cashProportion[3] <= 1
 -infinity <= cashProportion[4] <= 1
Binaries
 x[1,1] x[1,2] x[1,3] x[1,4] x[1,5] x[1,6] x[1,7] x[1,8] x[1,9] x[1,10]
 x[1,11] x[1,12] x[2,1] x[2,2] x[2,3] x[2,4] x[2,5] x[2,6] x[2,7] x[2,8]
 x[2,9] x[2,10] x[2,11] x[2,12] x[3,1] x[3,2] x[3,3] x[3,4] x[3,5] x[3,6]
 x[3,7] x[3,8] x[3,9] x[3,10] x[3,11] x[3,12] x[4,1] x[4,2] x[4,3] x[4,4]
 x[4,5] x[4,6] x[4,7] x[4,8] x[4,9] x[4,10] x[4,11] x[4,12]
End
