data/mps_files/q3/72_5.mps
NAME foo
ROWS
 N  OBJ
 E  allocateEach[1]
 E  allocateEach[2]
 E  allocateEach[3]
 E  allocateEach[4]
 E  allocateEach[5]
 E  allocateEach[6]
 E  allocateEach[7]
 E  allocateEach[8]
 E  allocateEach[9]
 E  allocateEach[10]
 E  allocateEach[11]
 E  allocateEach[12]
 E  allocateAllCash
 G  findWorstP[1,2]
 G  findWorstP[1,3]
 G  findWorstP[1,4]
 G  findWorstP[2,1]
 G  findWorstP[2,3]
 G  findWorstP[2,4]
 G  findWorstP[3,1]
 G  findWorstP[3,2]
 G  findWorstP[3,4]
 G  findWorstP[4,1]
 G  findWorstP[4,2]
 G  findWorstP[4,3]
COLUMNS
    z         OBJ       1
    z         findWorstP[1,2]  1
    z         findWorstP[1,3]  1
    z         findWorstP[1,4]  1
    z         findWorstP[2,1]  1
    z         findWorstP[2,3]  1
    z         findWorstP[2,4]  1
    z         findWorstP[3,1]  1
    z         findWorstP[3,2]  1
    z         findWorstP[3,4]  1
    z         findWorstP[4,1]  1
    z         findWorstP[4,2]  1
    z         findWorstP[4,3]  1
    cashProportion[1]  allocateAllCash  1
    cashProportion[1]  findWorstP[1,2]  3.9319510341031219e-02
    cashProportion[1]  findWorstP[1,3]  3.9319510341031219e-02
    cashProportion[1]  findWorstP[1,4]  3.9319510341031219e-02
    cashProportion[1]  findWorstP[2,1]  -5.1850187524844889e-02
    cashProportion[1]  findWorstP[3,1]  -5.9192612761927312e-02
    cashProportion[1]  findWorstP[4,1]  -4.4528884403016084e-02
    cashProportion[2]  allocateAllCash  1
    cashProportion[2]  findWorstP[1,2]  -3.9319510341031219e-02
    cashProportion[2]  findWorstP[2,1]  5.1850187524844889e-02
    cashProportion[2]  findWorstP[2,3]  5.1850187524844889e-02
    cashProportion[2]  findWorstP[2,4]  5.1850187524844889e-02
    cashProportion[2]  findWorstP[3,2]  -5.9192612761927312e-02
    cashProportion[2]  findWorstP[4,2]  -4.4528884403016084e-02
    cashProportion[3]  allocateAllCash  1
    cashProportion[3]  findWorstP[1,3]  -3.9319510341031219e-02
    cashProportion[3]  findWorstP[2,3]  -5.1850187524844889e-02
    cashProportion[3]  findWorstP[3,1]  5.9192612761927312e-02
    cashProportion[3]  findWorstP[3,2]  5.9192612761927312e-02
    cashProportion[3]  findWorstP[3,4]  5.9192612761927312e-02
    cashProportion[3]  findWorstP[4,3]  -4.4528884403016084e-02
    cashProportion[4]  allocateAllCash  1
    cashProportion[4]  findWorstP[1,4]  -3.9319510341031219e-02
    cashProportion[4]  findWorstP[2,4]  -5.1850187524844889e-02
    cashProportion[4]  findWorstP[3,4]  -5.9192612761927312e-02
    cashProportion[4]  findWorstP[4,1]  4.4528884403016084e-02
    cashProportion[4]  findWorstP[4,2]  4.4528884403016084e-02
    cashProportion[4]  findWorstP[4,3]  4.4528884403016084e-02
    MARKER    'MARKER'                 'INTORG'
    x[1,1]    allocateEach[1]  1
    x[1,1]    findWorstP[1,2]  1.0921649322393773e-01
    x[1,1]    findWorstP[1,3]  1.0921649322393773e-01
    x[1,1]    findWorstP[1,4]  1.0921649322393773e-01
    x[1,1]    findWorstP[2,1]  -3.4895176204220606e-02
    x[1,1]    findWorstP[3,1]  -3.0780158636202204e-02
    x[1,1]    findWorstP[4,1]  -1.3670367511725939e-01
    x[1,2]    allocateEach[2]  1
    x[1,2]    findWorstP[1,2]  5.7943851739233006e-02
    x[1,2]    findWorstP[1,3]  5.7943851739233006e-02
    x[1,2]    findWorstP[1,4]  5.7943851739233006e-02
    x[1,2]    findWorstP[2,1]  -1.3090444010439173e-01
    x[1,2]    findWorstP[3,1]  -6.5032950554437474e-02
    x[1,2]    findWorstP[4,1]  -1.3821765718696194e-01
    x[1,3]    allocateEach[3]  1
    x[1,3]    findWorstP[1,2]  1.1165430286508166e-01
    x[1,3]    findWorstP[1,3]  1.1165430286508166e-01
    x[1,3]    findWorstP[1,4]  1.1165430286508166e-01
    x[1,3]    findWorstP[2,1]  -9.0029208938972344e-02
    x[1,3]    findWorstP[3,1]  -4.0862633676650488e-02
    x[1,3]    findWorstP[4,1]  -7.2982841536543358e-02
    x[1,4]    allocateEach[4]  1
    x[1,4]    findWorstP[1,2]  5.1980392670843270e-02
    x[1,4]    findWorstP[1,3]  5.1980392670843270e-02
    x[1,4]    findWorstP[1,4]  5.1980392670843270e-02
    x[1,4]    findWorstP[2,1]  -1.6505643028742290e-01
    x[1,4]    findWorstP[3,1]  -9.6464227931020871e-02
    x[1,4]    findWorstP[4,1]  -1.4645550080151989e-01
    x[1,5]    allocateEach[5]  1
    x[1,5]    findWorstP[1,2]  1.0177199926603581e-01
    x[1,5]    findWorstP[1,3]  1.0177199926603581e-01
    x[1,5]    findWorstP[1,4]  1.0177199926603581e-01
    x[1,5]    findWorstP[2,1]  -1.1766535888971466e-01
    x[1,5]    findWorstP[3,1]  -8.9065151335779968e-02
    x[1,5]    findWorstP[4,1]  -1.6089770230956476e-02
    x[1,6]    allocateEach[6]  1
    x[1,6]    findWorstP[1,2]  0.0312327977142258
    x[1,6]    findWorstP[1,3]  0.0312327977142258
    x[1,6]    findWorstP[1,4]  0.0312327977142258
    x[1,6]    findWorstP[2,1]  -9.2846402461155580e-02
    x[1,6]    findWorstP[3,1]  -1.2073319916341108e-01
    x[1,6]    findWorstP[4,1]  -1.4739060737398323e-02
    x[1,7]    allocateEach[7]  1
    x[1,7]    findWorstP[1,2]  1.0406563736926264e-01
    x[1,7]    findWorstP[1,3]  1.0406563736926264e-01
    x[1,7]    findWorstP[1,4]  1.0406563736926264e-01
    x[1,7]    findWorstP[2,1]  -5.0208264919891464e-02
    x[1,7]    findWorstP[3,1]  -5.1694881812083190e-02
    x[1,7]    findWorstP[4,1]  -5.0109837914860768e-02
    x[1,8]    allocateEach[8]  1
    x[1,8]    findWorstP[1,2]  5.3225510498309266e-02
    x[1,8]    findWorstP[1,3]  5.3225510498309266e-02
    x[1,8]    findWorstP[1,4]  5.3225510498309266e-02
    x[1,8]    findWorstP[2,1]  -1.4569902694481413e-02
    x[1,8]    findWorstP[3,1]  -0.0585809557633874
    x[1,8]    findWorstP[4,1]  -8.2230006530903038e-02
    x[1,9]    allocateEach[9]  1
    x[1,9]    findWorstP[1,2]  1.1633332459566435e-01
    x[1,9]    findWorstP[1,3]  1.1633332459566435e-01
    x[1,9]    findWorstP[1,4]  1.1633332459566435e-01
    x[1,9]    findWorstP[2,1]  -2.0843775384987644e-02
    x[1,9]    findWorstP[3,1]  -3.9185509648395879e-02
    x[1,9]    findWorstP[4,1]  -1.0534049753606838e-01
    x[1,10]   allocateEach[10]  1
    x[1,10]   findWorstP[1,2]  3.3211879734724371e-02
    x[1,10]   findWorstP[1,3]  3.3211879734724371e-02
    x[1,10]   findWorstP[1,4]  3.3211879734724371e-02
    x[1,10]   findWorstP[2,1]  -9.4142657149276693e-02
    x[1,10]   findWorstP[3,1]  -1.9350065111874040e-01
    x[1,10]   findWorstP[4,1]  -6.0499910942231186e-02
    x[1,11]   allocateEach[11]  1
    x[1,11]   findWorstP[1,2]  8.1797688012791941e-02
    x[1,11]   findWorstP[1,3]  8.1797688012791941e-02
    x[1,11]   findWorstP[1,4]  8.1797688012791941e-02
    x[1,11]   findWorstP[2,1]  -1.1802831020238858e-01
    x[1,11]   findWorstP[3,1]  -4.9662602107257009e-02
    x[1,11]   findWorstP[4,1]  -4.7942765540580651e-03
    x[1,12]   allocateEach[12]  1
    x[1,12]   findWorstP[1,2]  1.0824661196885894e-01
    x[1,12]   findWorstP[1,3]  1.0824661196885894e-01
    x[1,12]   findWorstP[1,4]  1.0824661196885894e-01
    x[1,12]   findWorstP[2,1]  -1.8959885238251616e-02
    x[1,12]   findWorstP[3,1]  -1.0524446549070676e-01
    x[1,12]   findWorstP[4,1]  -1.2730808050822298e-01
    x[2,1]    allocateEach[1]  1
    x[2,1]    findWorstP[1,2]  -1.0921649322393773e-01
    x[2,1]    findWorstP[2,1]  3.4895176204220606e-02
    x[2,1]    findWorstP[2,3]  3.4895176204220606e-02
    x[2,1]    findWorstP[2,4]  3.4895176204220606e-02
    x[2,1]    findWorstP[3,2]  -3.0780158636202204e-02
    x[2,1]    findWorstP[4,2]  -1.3670367511725939e-01
    x[2,2]    allocateEach[2]  1
    x[2,2]    findWorstP[1,2]  -5.7943851739233006e-02
    x[2,2]    findWorstP[2,1]  1.3090444010439173e-01
    x[2,2]    findWorstP[2,3]  1.3090444010439173e-01
    x[2,2]    findWorstP[2,4]  1.3090444010439173e-01
    x[2,2]    findWorstP[3,2]  -6.5032950554437474e-02
    x[2,2]    findWorstP[4,2]  -1.3821765718696194e-01
    x[2,3]    allocateEach[3]  1
    x[2,3]    findWorstP[1,2]  -1.1165430286508166e-01
    x[2,3]    findWorstP[2,1]  9.0029208938972344e-02
    x[2,3]    findWorstP[2,3]  9.0029208938972344e-02
    x[2,3]    findWorstP[2,4]  9.0029208938972344e-02
    x[2,3]    findWorstP[3,2]  -4.0862633676650488e-02
    x[2,3]    findWorstP[4,2]  -7.2982841536543358e-02
    x[2,4]    allocateEach[4]  1
    x[2,4]    findWorstP[1,2]  -5.1980392670843270e-02
    x[2,4]    findWorstP[2,1]  1.6505643028742290e-01
    x[2,4]    findWorstP[2,3]  1.6505643028742290e-01
    x[2,4]    findWorstP[2,4]  1.6505643028742290e-01
    x[2,4]    findWorstP[3,2]  -9.6464227931020871e-02
    x[2,4]    findWorstP[4,2]  -1.4645550080151989e-01
    x[2,5]    allocateEach[5]  1
    x[2,5]    findWorstP[1,2]  -1.0177199926603581e-01
    x[2,5]    findWorstP[2,1]  1.1766535888971466e-01
    x[2,5]    findWorstP[2,3]  1.1766535888971466e-01
    x[2,5]    findWorstP[2,4]  1.1766535888971466e-01
    x[2,5]    findWorstP[3,2]  -8.9065151335779968e-02
    x[2,5]    findWorstP[4,2]  -1.6089770230956476e-02
    x[2,6]    allocateEach[6]  1
    x[2,6]    findWorstP[1,2]  -0.0312327977142258
    x[2,6]    findWorstP[2,1]  9.2846402461155580e-02
    x[2,6]    findWorstP[2,3]  9.2846402461155580e-02
    x[2,6]    findWorstP[2,4]  9.2846402461155580e-02
    x[2,6]    findWorstP[3,2]  -1.2073319916341108e-01
    x[2,6]    findWorstP[4,2]  -1.4739060737398323e-02
    x[2,7]    allocateEach[7]  1
    x[2,7]    findWorstP[1,2]  -1.0406563736926264e-01
    x[2,7]    findWorstP[2,1]  5.0208264919891464e-02
    x[2,7]    findWorstP[2,3]  5.0208264919891464e-02
    x[2,7]    findWorstP[2,4]  5.0208264919891464e-02
    x[2,7]    findWorstP[3,2]  -5.1694881812083190e-02
    x[2,7]    findWorstP[4,2]  -5.0109837914860768e-02
    x[2,8]    allocateEach[8]  1
    x[2,8]    findWorstP[1,2]  -5.3225510498309266e-02
    x[2,8]    findWorstP[2,1]  1.4569902694481413e-02
    x[2,8]    findWorstP[2,3]  1.4569902694481413e-02
    x[2,8]    findWorstP[2,4]  1.4569902694481413e-02
    x[2,8]    findWorstP[3,2]  -0.0585809557633874
    x[2,8]    findWorstP[4,2]  -8.2230006530903038e-02
    x[2,9]    allocateEach[9]  1
    x[2,9]    findWorstP[1,2]  -1.1633332459566435e-01
    x[2,9]    findWorstP[2,1]  2.0843775384987644e-02
    x[2,9]    findWorstP[2,3]  2.0843775384987644e-02
    x[2,9]    findWorstP[2,4]  2.0843775384987644e-02
    x[2,9]    findWorstP[3,2]  -3.9185509648395879e-02
    x[2,9]    findWorstP[4,2]  -1.0534049753606838e-01
    x[2,10]   allocateEach[10]  1
    x[2,10]   findWorstP[1,2]  -3.3211879734724371e-02
    x[2,10]   findWorstP[2,1]  9.4142657149276693e-02
    x[2,10]   findWorstP[2,3]  9.4142657149276693e-02
    x[2,10]   findWorstP[2,4]  9.4142657149276693e-02
    x[2,10]   findWorstP[3,2]  -1.9350065111874040e-01
    x[2,10]   findWorstP[4,2]  -6.0499910942231186e-02
    x[2,11]   allocateEach[11]  1
    x[2,11]   findWorstP[1,2]  -8.1797688012791941e-02
    x[2,11]   findWorstP[2,1]  1.1802831020238858e-01
    x[2,11]   findWorstP[2,3]  1.1802831020238858e-01
    x[2,11]   findWorstP[2,4]  1.1802831020238858e-01
    x[2,11]   findWorstP[3,2]  -4.9662602107257009e-02
    x[2,11]   findWorstP[4,2]  -4.7942765540580651e-03
    x[2,12]   allocateEach[12]  1
    x[2,12]   findWorstP[1,2]  -1.0824661196885894e-01
    x[2,12]   findWorstP[2,1]  1.8959885238251616e-02
    x[2,12]   findWorstP[2,3]  1.8959885238251616e-02
    x[2,12]   findWorstP[2,4]  1.8959885238251616e-02
    x[2,12]   findWorstP[3,2]  -1.0524446549070676e-01
    x[2,12]   findWorstP[4,2]  -1.2730808050822298e-01
    x[3,1]    allocateEach[1]  1
    x[3,1]    findWorstP[1,3]  -1.0921649322393773e-01
    x[3,1]    findWorstP[2,3]  -3.4895176204220606e-02
    x[3,1]    findWorstP[3,1]  3.0780158636202204e-02
    x[3,1]    findWorstP[3,2]  3.0780158636202204e-02
    x[3,1]    findWorstP[3,4]  3.0780158636202204e-02
    x[3,1]    findWorstP[4,3]  -1.3670367511725939e-01
    x[3,2]    allocateEach[2]  1
    x[3,2]    findWorstP[1,3]  -5.7943851739233006e-02
    x[3,2]    findWorstP[2,3]  -1.3090444010439173e-01
    x[3,2]    findWorstP[3,1]  6.5032950554437474e-02
    x[3,2]    findWorstP[3,2]  6.5032950554437474e-02
    x[3,2]    findWorstP[3,4]  6.5032950554437474e-02
    x[3,2]    findWorstP[4,3]  -1.3821765718696194e-01
    x[3,3]    allocateEach[3]  1
    x[3,3]    findWorstP[1,3]  -1.1165430286508166e-01
    x[3,3]    findWorstP[2,3]  -9.0029208938972344e-02
    x[3,3]    findWorstP[3,1]  4.0862633676650488e-02
    x[3,3]    findWorstP[3,2]  4.0862633676650488e-02
    x[3,3]    findWorstP[3,4]  4.0862633676650488e-02
    x[3,3]    findWorstP[4,3]  -7.2982841536543358e-02
    x[3,4]    allocateEach[4]  1
    x[3,4]    findWorstP[1,3]  -5.1980392670843270e-02
    x[3,4]    findWorstP[2,3]  -1.6505643028742290e-01
    x[3,4]    findWorstP[3,1]  9.6464227931020871e-02
    x[3,4]    findWorstP[3,2]  9.6464227931020871e-02
    x[3,4]    findWorstP[3,4]  9.6464227931020871e-02
    x[3,4]    findWorstP[4,3]  -1.4645550080151989e-01
    x[3,5]    allocateEach[5]  1
    x[3,5]    findWorstP[1,3]  -1.0177199926603581e-01
    x[3,5]    findWorstP[2,3]  -1.1766535888971466e-01
    x[3,5]    findWorstP[3,1]  8.9065151335779968e-02
    x[3,5]    findWorstP[3,2]  8.9065151335779968e-02
    x[3,5]    findWorstP[3,4]  8.9065151335779968e-02
    x[3,5]    findWorstP[4,3]  -1.6089770230956476e-02
    x[3,6]    allocateEach[6]  1
    x[3,6]    findWorstP[1,3]  -0.0312327977142258
    x[3,6]    findWorstP[2,3]  -9.2846402461155580e-02
    x[3,6]    findWorstP[3,1]  1.2073319916341108e-01
    x[3,6]    findWorstP[3,2]  1.2073319916341108e-01
    x[3,6]    findWorstP[3,4]  1.2073319916341108e-01
    x[3,6]    findWorstP[4,3]  -1.4739060737398323e-02
    x[3,7]    allocateEach[7]  1
    x[3,7]    findWorstP[1,3]  -1.0406563736926264e-01
    x[3,7]    findWorstP[2,3]  -5.0208264919891464e-02
    x[3,7]    findWorstP[3,1]  5.1694881812083190e-02
    x[3,7]    findWorstP[3,2]  5.1694881812083190e-02
    x[3,7]    findWorstP[3,4]  5.1694881812083190e-02
    x[3,7]    findWorstP[4,3]  -5.0109837914860768e-02
    x[3,8]    allocateEach[8]  1
    x[3,8]    findWorstP[1,3]  -5.3225510498309266e-02
    x[3,8]    findWorstP[2,3]  -1.4569902694481413e-02
    x[3,8]    findWorstP[3,1]  0.0585809557633874
    x[3,8]    findWorstP[3,2]  0.0585809557633874
    x[3,8]    findWorstP[3,4]  0.0585809557633874
    x[3,8]    findWorstP[4,3]  -8.2230006530903038e-02
    x[3,9]    allocateEach[9]  1
    x[3,9]    findWorstP[1,3]  -1.1633332459566435e-01
    x[3,9]    findWorstP[2,3]  -2.0843775384987644e-02
    x[3,9]    findWorstP[3,1]  3.9185509648395879e-02
    x[3,9]    findWorstP[3,2]  3.9185509648395879e-02
    x[3,9]    findWorstP[3,4]  3.9185509648395879e-02
    x[3,9]    findWorstP[4,3]  -1.0534049753606838e-01
    x[3,10]   allocateEach[10]  1
    x[3,10]   findWorstP[1,3]  -3.3211879734724371e-02
    x[3,10]   findWorstP[2,3]  -9.4142657149276693e-02
    x[3,10]   findWorstP[3,1]  1.9350065111874040e-01
    x[3,10]   findWorstP[3,2]  1.9350065111874040e-01
    x[3,10]   findWorstP[3,4]  1.9350065111874040e-01
    x[3,10]   findWorstP[4,3]  -6.0499910942231186e-02
    x[3,11]   allocateEach[11]  1
    x[3,11]   findWorstP[1,3]  -8.1797688012791941e-02
    x[3,11]   findWorstP[2,3]  -1.1802831020238858e-01
    x[3,11]   findWorstP[3,1]  4.9662602107257009e-02
    x[3,11]   findWorstP[3,2]  4.9662602107257009e-02
    x[3,11]   findWorstP[3,4]  4.9662602107257009e-02
    x[3,11]   findWorstP[4,3]  -4.7942765540580651e-03
    x[3,12]   allocateEach[12]  1
    x[3,12]   findWorstP[1,3]  -1.0824661196885894e-01
    x[3,12]   findWorstP[2,3]  -1.8959885238251616e-02
    x[3,12]   findWorstP[3,1]  1.0524446549070676e-01
    x[3,12]   findWorstP[3,2]  1.0524446549070676e-01
    x[3,12]   findWorstP[3,4]  1.0524446549070676e-01
    x[3,12]   findWorstP[4,3]  -1.2730808050822298e-01
    x[4,1]    allocateEach[1]  1
    x[4,1]    findWorstP[1,4]  -1.0921649322393773e-01
    x[4,1]    findWorstP[2,4]  -3.4895176204220606e-02
    x[4,1]    findWorstP[3,4]  -3.0780158636202204e-02
    x[4,1]    findWorstP[4,1]  1.3670367511725939e-01
    x[4,1]    findWorstP[4,2]  1.3670367511725939e-01
    x[4,1]    findWorstP[4,3]  1.3670367511725939e-01
    x[4,2]    allocateEach[2]  1
    x[4,2]    findWorstP[1,4]  -5.7943851739233006e-02
    x[4,2]    findWorstP[2,4]  -1.3090444010439173e-01
    x[4,2]    findWorstP[3,4]  -6.5032950554437474e-02
    x[4,2]    findWorstP[4,1]  1.3821765718696194e-01
    x[4,2]    findWorstP[4,2]  1.3821765718696194e-01
    x[4,2]    findWorstP[4,3]  1.3821765718696194e-01
    x[4,3]    allocateEach[3]  1
    x[4,3]    findWorstP[1,4]  -1.1165430286508166e-01
    x[4,3]    findWorstP[2,4]  -9.0029208938972344e-02
    x[4,3]    findWorstP[3,4]  -4.0862633676650488e-02
    x[4,3]    findWorstP[4,1]  7.2982841536543358e-02
    x[4,3]    findWorstP[4,2]  7.2982841536543358e-02
    x[4,3]    findWorstP[4,3]  7.2982841536543358e-02
    x[4,4]    allocateEach[4]  1
    x[4,4]    findWorstP[1,4]  -5.1980392670843270e-02
    x[4,4]    findWorstP[2,4]  -1.6505643028742290e-01
    x[4,4]    findWorstP[3,4]  -9.6464227931020871e-02
    x[4,4]    findWorstP[4,1]  1.4645550080151989e-01
    x[4,4]    findWorstP[4,2]  1.4645550080151989e-01
    x[4,4]    findWorstP[4,3]  1.4645550080151989e-01
    x[4,5]    allocateEach[5]  1
    x[4,5]    findWorstP[1,4]  -1.0177199926603581e-01
    x[4,5]    findWorstP[2,4]  -1.1766535888971466e-01
    x[4,5]    findWorstP[3,4]  -8.9065151335779968e-02
    x[4,5]    findWorstP[4,1]  1.6089770230956476e-02
    x[4,5]    findWorstP[4,2]  1.6089770230956476e-02
    x[4,5]    findWorstP[4,3]  1.6089770230956476e-02
    x[4,6]    allocateEach[6]  1
    x[4,6]    findWorstP[1,4]  -0.0312327977142258
    x[4,6]    findWorstP[2,4]  -9.2846402461155580e-02
    x[4,6]    findWorstP[3,4]  -1.2073319916341108e-01
    x[4,6]    findWorstP[4,1]  1.4739060737398323e-02
    x[4,6]    findWorstP[4,2]  1.4739060737398323e-02
    x[4,6]    findWorstP[4,3]  1.4739060737398323e-02
    x[4,7]    allocateEach[7]  1
    x[4,7]    findWorstP[1,4]  -1.0406563736926264e-01
    x[4,7]    findWorstP[2,4]  -5.0208264919891464e-02
    x[4,7]    findWorstP[3,4]  -5.1694881812083190e-02
    x[4,7]    findWorstP[4,1]  5.0109837914860768e-02
    x[4,7]    findWorstP[4,2]  5.0109837914860768e-02
    x[4,7]    findWorstP[4,3]  5.0109837914860768e-02
    x[4,8]    allocateEach[8]  1
    x[4,8]    findWorstP[1,4]  -5.3225510498309266e-02
    x[4,8]    findWorstP[2,4]  -1.4569902694481413e-02
    x[4,8]    findWorstP[3,4]  -0.0585809557633874
    x[4,8]    findWorstP[4,1]  8.2230006530903038e-02
    x[4,8]    findWorstP[4,2]  8.2230006530903038e-02
    x[4,8]    findWorstP[4,3]  8.2230006530903038e-02
    x[4,9]    allocateEach[9]  1
    x[4,9]    findWorstP[1,4]  -1.1633332459566435e-01
    x[4,9]    findWorstP[2,4]  -2.0843775384987644e-02
    x[4,9]    findWorstP[3,4]  -3.9185509648395879e-02
    x[4,9]    findWorstP[4,1]  1.0534049753606838e-01
    x[4,9]    findWorstP[4,2]  1.0534049753606838e-01
    x[4,9]    findWorstP[4,3]  1.0534049753606838e-01
    x[4,10]   allocateEach[10]  1
    x[4,10]   findWorstP[1,4]  -3.3211879734724371e-02
    x[4,10]   findWorstP[2,4]  -9.4142657149276693e-02
    x[4,10]   findWorstP[3,4]  -1.9350065111874040e-01
    x[4,10]   findWorstP[4,1]  6.0499910942231186e-02
    x[4,10]   findWorstP[4,2]  6.0499910942231186e-02
    x[4,10]   findWorstP[4,3]  6.0499910942231186e-02
    x[4,11]   allocateEach[11]  1
    x[4,11]   findWorstP[1,4]  -8.1797688012791941e-02
    x[4,11]   findWorstP[2,4]  -1.1802831020238858e-01
    x[4,11]   findWorstP[3,4]  -4.9662602107257009e-02
    x[4,11]   findWorstP[4,1]  4.7942765540580651e-03
    x[4,11]   findWorstP[4,2]  4.7942765540580651e-03
    x[4,11]   findWorstP[4,3]  4.7942765540580651e-03
    x[4,12]   allocateEach[12]  1
    x[4,12]   findWorstP[1,4]  -1.0824661196885894e-01
    x[4,12]   findWorstP[2,4]  -1.8959885238251616e-02
    x[4,12]   findWorstP[3,4]  -1.0524446549070676e-01
    x[4,12]   findWorstP[4,1]  1.2730808050822298e-01
    x[4,12]   findWorstP[4,2]  1.2730808050822298e-01
    x[4,12]   findWorstP[4,3]  1.2730808050822298e-01
    MARKER    'MARKER'                 'INTEND'
RHS
    RHS1      allocateEach[1]  1
    RHS1      allocateEach[2]  1
    RHS1      allocateEach[3]  1
    RHS1      allocateEach[4]  1
    RHS1      allocateEach[5]  1
    RHS1      allocateEach[6]  1
    RHS1      allocateEach[7]  1
    RHS1      allocateEach[8]  1
    RHS1      allocateEach[9]  1
    RHS1      allocateEach[10]  1
    RHS1      allocateEach[11]  1
    RHS1      allocateEach[12]  1
    RHS1      allocateAllCash  1
BOUNDS
 UP BND1      z         1
 MI BND1      cashProportion[1]
 UP BND1      cashProportion[1]  1
 MI BND1      cashProportion[2]
 UP BND1      cashProportion[2]  1
 MI BND1      cashProportion[3]
 UP BND1      cashProportion[3]  1
 MI BND1      cashProportion[4]
 UP BND1      cashProportion[4]  1
 BV BND1      x[1,1]  
 BV BND1      x[1,2]  
 BV BND1      x[1,3]  
 BV BND1      x[1,4]  
 BV BND1      x[1,5]  
 BV BND1      x[1,6]  
 BV BND1      x[1,7]  
 BV BND1      x[1,8]  
 BV BND1      x[1,9]  
 BV BND1      x[1,10] 
 BV BND1      x[1,11] 
 BV BND1      x[1,12] 
 BV BND1      x[2,1]  
 BV BND1      x[2,2]  
 BV BND1      x[2,3]  
 BV BND1      x[2,4]  
 BV BND1      x[2,5]  
 BV BND1      x[2,6]  
 BV BND1      x[2,7]  
 BV BND1      x[2,8]  
 BV BND1      x[2,9]  
 BV BND1      x[2,10] 
 BV BND1      x[2,11] 
 BV BND1      x[2,12] 
 BV BND1      x[3,1]  
 BV BND1      x[3,2]  
 BV BND1      x[3,3]  
 BV BND1      x[3,4]  
 BV BND1      x[3,5]  
 BV BND1      x[3,6]  
 BV BND1      x[3,7]  
 BV BND1      x[3,8]  
 BV BND1      x[3,9]  
 BV BND1      x[3,10] 
 BV BND1      x[3,11] 
 BV BND1      x[3,12] 
 BV BND1      x[4,1]  
 BV BND1      x[4,2]  
 BV BND1      x[4,3]  
 BV BND1      x[4,4]  
 BV BND1      x[4,5]  
 BV BND1      x[4,6]  
 BV BND1      x[4,7]  
 BV BND1      x[4,8]  
 BV BND1      x[4,9]  
 BV BND1      x[4,10] 
 BV BND1      x[4,11] 
 BV BND1      x[4,12] 
ENDATA
